RT is False
Default write of storage_offers_DA.csv just to have a file (but constraint should be inactive)
Reading model...
...model read.
creating competitive generators file...
...competitive generators recorded.
Loading data...
.. day-ahead data with real-time VRE data read.
Compiling instance...
...instance created.
Creating Offer Mitigation (model will solve as dispatch if TRUE)...
NOTE: storage offers will not be mitigated
...storage offer mitigation file created
Converting model to MPEC...
...converted
NOTE: initial MIP solve with only storage competitive to get feasible solution
Solving...

Welcome to IBM(R) ILOG(R) CPLEX(R) Interactive Optimizer 12.9.0.0
  with Simplex, Mixed Integer & Barrier Optimizers
5725-A06 5725-A29 5724-Y48 5724-Y49 5724-Y54 5724-Y55 5655-Y21
Copyright IBM Corp. 1988, 2019.  All Rights Reserved.

Type 'help' for a list of available commands.
Type 'help' followed by a command name for more
information on commands.

CPLEX> Logfile 'cplex.log' closed.
Logfile 'C:\Users\llavin\Desktop\test919\logs\tmpswb2q7yx.cplex.log' open.
CPLEX> New value for parallel optimization mode: -1
CPLEX> New value for mixed integer optimality gap tolerance: 0.01
CPLEX> New value for integrality tolerance: 1e-09
CPLEX> New value for feasibility tolerance: 0.01
CPLEX> New value for deterministic time limit in ticks: 100000
CPLEX> Problem 'C:\Users\llavin\Desktop\test919\logs\tmpsn3ugnnz.pyomo.lp' read.
Read time = 0.25 sec. (13.86 ticks)
CPLEX> Problem name         : C:\Users\llavin\Desktop\test919\logs\tmpsn3ugnnz.pyomo.lp
Objective sense      : Maximize
Variables            :   53321  [Nneg: 1,  Box: 21806,  Free: 4416,
                                 Binary: 27098]
Objective nonzeros   :    9029
Linear constraints   :  122164  [Less: 40983,  Greater: 58612,  Equal: 22569]
  Nonzeros           :  288457
  RHS nonzeros       :   66982

Variables            : Min LB: -5000.000        Max UB: 1000000.       
Objective nonzeros   : Min   : 0.07500000       Max   : 2500.000       
Linear constraints   :
  Nonzeros           : Min   : 0.07500000       Max   : 1000000.       
  RHS nonzeros       : Min   : 0.07500000       Max   : 1000000.       
CPLEX> CPXPARAM_Parallel                                -1
CPXPARAM_Simplex_Tolerances_Feasibility          0.01
CPXPARAM_DetTimeLimit                            100000
CPXPARAM_MIP_Tolerances_MIPGap                   0.01
CPXPARAM_MIP_Tolerances_Integrality              1.0000000000000001e-09
Tried aggregator 3 times.
MIP Presolve eliminated 88125 rows and 19005 columns.
MIP Presolve added 3356 rows and 0 columns.
MIP Presolve modified 24487 coefficients.
Aggregator did 12856 substitutions.
Reduced MIP has 24539 rows, 20904 columns, and 68727 nonzeros.
Reduced MIP has 8281 binaries, 0 generals, 0 SOSs, and 0 indicators.
Presolve time = 0.30 sec. (171.65 ticks)
Probing fixed 445 vars, tightened 2900 bounds.
Probing time = 1.25 sec. (901.20 ticks)
Tried aggregator 2 times.
MIP Presolve eliminated 991 rows and 891 columns.
MIP Presolve modified 2211 coefficients.
Aggregator did 41 substitutions.
Reduced MIP has 23507 rows, 19972 columns, and 65726 nonzeros.
Reduced MIP has 7836 binaries, 0 generals, 0 SOSs, and 0 indicators.
Presolve time = 0.09 sec. (67.61 ticks)
Probing time = 0.05 sec. (15.74 ticks)
Clique table members: 6462.
MIP emphasis: balance optimality and feasibility.
MIP search method: dynamic search.
Parallel mode: opportunistic, using up to 32 threads.
Root relaxation solution time = 0.34 sec. (461.41 ticks)

        Nodes                                         Cuts/
   Node  Left     Objective  IInf  Best Integer    Best Bound    ItCnt     Gap

      0     0      -22.1826   753                    -22.1826     3109         
      0     0      -22.1826    22                    Cuts: 19     3118         
      0     0      -22.1826    22                     Cuts: 4     3119         
      0     5    infeasible                           Cuts: 2     3498         
Elapsed time = 7.39 sec. (4308.39 ticks, tree = 0.02 MB, solutions = 0)
    437   114   -39094.3222     6                    -34.2379     5411         
*   509+  159                        -2690.0869      -34.3291            98.72%
*   842   101      integral     0     -543.2227      -34.3291    12125   93.68%
*   847    84      integral     0     -543.2227      -34.3291    12381   93.68%
   1253    56      -35.2271     1     -543.2227      -34.3291    14133   93.68%
   1574   312      -35.2271     1     -543.2227      -34.3291    26546   93.68%
   1967   429     -108.3015     3     -543.2227      -34.3291    27442   93.68%
   2267   434        cutoff           -543.2227      -34.3291    27510   93.68%
   2479   507        3.2144   168     -543.2227      -34.3291    28818   93.68%
   3278   783        3.2144   120     -543.2227      -34.3291    35721   93.68%
Elapsed time = 19.53 sec. (6917.87 ticks, tree = 3.39 MB, solutions = 7)
*  3956  1099      integral     0      -34.9108      -34.3291    36356    1.67%
   3969   993      -66.0401     1      -34.9108      -34.3291    36101    1.67%

Cover cuts applied:  2
Implied bound cuts applied:  15
Flow cuts applied:  164
Gomory fractional cuts applied:  13

Root node processing (before b&c):
  Real time             =    6.44 sec. (4303.42 ticks)
Parallel b&c, 32 threads:
  Real time             =   14.30 sec. (4027.06 ticks)
  Sync time (average)   =    2.26 sec.
  Wait time (average)   =    0.00 sec.
                          ------------
Total (root+branch&cut) =   20.74 sec. (8330.47 ticks)

Solution pool: 7 solutions saved.

MIP - Integer optimal solution:  Objective = -3.4910794164e+01
Solution time =   20.76 sec.  Iterations = 36833  Nodes = 3990
Deterministic time = 8330.63 ticks  (401.19 ticks/sec)

CPLEX> Incumbent solution written to file 'C:\Users\llavin\Desktop\test919\logs\tmpkiy4zd7i.cplex.sol'.
CPLEX> NOTE: no warmstart specified for MIP iteration, default behavior is true
NOTE: resolving with all competitive generators using storage-only solution to warmstart
Solving...

Welcome to IBM(R) ILOG(R) CPLEX(R) Interactive Optimizer 12.9.0.0
  with Simplex, Mixed Integer & Barrier Optimizers
5725-A06 5725-A29 5724-Y48 5724-Y49 5724-Y54 5724-Y55 5655-Y21
Copyright IBM Corp. 1988, 2019.  All Rights Reserved.

Type 'help' for a list of available commands.
Type 'help' followed by a command name for more
information on commands.

CPLEX> Logfile 'cplex.log' closed.
Logfile 'C:\Users\llavin\Desktop\test919\logs\tmp74yisbns.cplex.log' open.
CPLEX> New value for parallel optimization mode: -1
CPLEX> New value for mixed integer optimality gap tolerance: 0.01
CPLEX> New value for integrality tolerance: 1e-09
CPLEX> New value for feasibility tolerance: 0.01
CPLEX> New value for deterministic time limit in ticks: 100000
CPLEX> Problem 'C:\Users\llavin\Desktop\test919\logs\tmpjim_u2io.pyomo.lp' read.
Read time = 0.22 sec. (13.88 ticks)
CPLEX> MIP start file 'C:\Users\llavin\Desktop\test919\logs\tmp20590f6v.cplex.mst' read.
CPLEX> Problem name         : C:\Users\llavin\Desktop\test919\logs\tmpjim_u2io.pyomo.lp
Objective sense      : Maximize
Variables            :   54041  [Nneg: 1,  Box: 22526,  Free: 4416,
                                 Binary: 27098]
Objective nonzeros   :    9749
Linear constraints   :  122164  [Less: 40983,  Greater: 58612,  Equal: 22569]
  Nonzeros           :  288457
  RHS nonzeros       :   66982

Variables            : Min LB: -5000.000        Max UB: 1000000.       
Objective nonzeros   : Min   : 0.07500000       Max   : 2500.000       
Linear constraints   :
  Nonzeros           : Min   : 0.07500000       Max   : 1000000.       
  RHS nonzeros       : Min   : 0.07500000       Max   : 1000000.       
CPLEX> CPXPARAM_Parallel                                -1
CPXPARAM_Simplex_Tolerances_Feasibility          0.01
CPXPARAM_DetTimeLimit                            100000
CPXPARAM_MIP_Tolerances_MIPGap                   0.01
CPXPARAM_MIP_Tolerances_Integrality              1.0000000000000001e-09
Warning:  No solution found from 1 MIP starts.
Retaining values of one MIP start for possible repair.
Tried aggregator 3 times.
MIP Presolve eliminated 88125 rows and 19725 columns.
MIP Presolve added 3356 rows and 0 columns.
MIP Presolve modified 24487 coefficients.
Aggregator did 12856 substitutions.
Reduced MIP has 24539 rows, 20904 columns, and 68727 nonzeros.
Reduced MIP has 8281 binaries, 0 generals, 0 SOSs, and 0 indicators.
Presolve time = 0.28 sec. (172.01 ticks)
Probing fixed 445 vars, tightened 2900 bounds.
Probing time = 1.23 sec. (901.20 ticks)
Tried aggregator 2 times.
MIP Presolve eliminated 991 rows and 891 columns.
MIP Presolve modified 2211 coefficients.
Aggregator did 41 substitutions.
Reduced MIP has 23507 rows, 19972 columns, and 65726 nonzeros.
Reduced MIP has 7836 binaries, 0 generals, 0 SOSs, and 0 indicators.
Presolve time = 0.09 sec. (67.61 ticks)
Probing time = 0.03 sec. (15.74 ticks)
Clique table members: 6462.
MIP emphasis: balance optimality and feasibility.
MIP search method: dynamic search.
Parallel mode: opportunistic, using up to 32 threads.
Root relaxation solution time = 0.34 sec. (461.41 ticks)

        Nodes                                         Cuts/
   Node  Left     Objective  IInf  Best Integer    Best Bound    ItCnt     Gap

      0     0      -22.1826   753                    -22.1826     3109         
      0     0      -22.1826    22                    Cuts: 19     3118         
      0     0      -22.1826    22                     Cuts: 4     3119         
Repair heuristic found nothing.
      0     8    infeasible                           Cuts: 2     3361         
Elapsed time = 7.72 sec. (4394.81 ticks, tree = 0.02 MB, solutions = 0)
*   487+  238                       -14780.8542      -34.2379            99.77%
    988   278   -83532.3075     6    -4116.3544      -34.2379     9092   99.17%
   1543   229        cutoff          -4116.3544      -34.2379    16733   99.17%
   1949   543    -2020.2799    10    -4116.3544      -34.2379    23392   99.17%
   2327   667    -1193.6946     2     -341.9650      -34.2379    24026   89.99%
   2699   223     -102.5027     3     -341.9650      -34.2379    25447   89.99%
   3064   351      -35.2271     2     -341.9650      -34.2379    26610   89.99%
   3400   512     -229.0800     2     -341.9650      -34.2379    27510   89.99%
   3702   628     -318.9874     4     -341.9650      -34.2379    28138   89.99%
   4364   849      -35.2271     1     -341.9650      -34.2379    29415   89.99%
Elapsed time = 21.98 sec. (7477.75 ticks, tree = 3.54 MB, solutions = 12)
   4773   901      -35.2271     1     -341.9650      -34.2379    29722   89.99%
   5105   916      -59.8672     1     -341.9650      -34.2379    29894   89.99%
   5381   949        cutoff           -341.9650      -34.2379    30427   89.99%
   5656   954        cutoff           -341.9650      -34.2379    30576   89.99%
   5907   955        cutoff           -341.9650      -34.2379    30530   89.99%
   6122   955        cutoff           -341.9650      -34.2379    30670   89.99%
   6358   968        cutoff           -341.9650      -34.2379    30779   89.99%
   6561   980      -35.2271     1     -341.9650      -34.2379    30876   89.99%
   6751   998        cutoff           -341.9650      -34.2379    31022   89.99%
   6923  1021      -35.2271     1     -341.9650      -34.2379    31168   89.99%
Elapsed time = 39.17 sec. (17055.16 ticks, tree = 4.22 MB, solutions = 12)
   7083  1104        cutoff           -341.9650      -34.2379    31975   89.99%
   7234  1086        cutoff           -341.9650      -34.2379    31877   89.99%
   7371  1081      -35.2271     3     -341.9650      -34.2379    31832   89.99%
   7495  1107      -35.2271     1     -341.9650      -34.2379    31984   89.99%
   7654  1182      -59.8672     1     -341.9650      -34.2379    32496   89.99%
   7754  1143      -35.2271     1     -341.9650      -34.2379    32274   89.99%
   7852  1205      -35.2271     1     -341.9650      -34.2379    32619   89.99%
   7917  1195        cutoff           -341.9650      -34.2379    32575   89.99%
   7937  1269    infeasible           -341.9650      -34.2379    37501   89.99%
   9390    86     -156.2522    15     -341.9650      -34.2379    38330   89.99%
Elapsed time = 52.92 sec. (28816.12 ticks, tree = 0.16 MB, solutions = 12)
  11619  1306      -56.2846     7     -341.9650      -34.2379    54624   89.99%
  16168  2735      -32.0937    96     -341.9650      -34.2379    70515   89.99%
* 19112  3411      integral     0        2.3164      -34.2379    75064     --- 
  19800  5171        cutoff              2.3164      -34.2379    96537     --- 

GUB cover cuts applied:  2
Cover cuts applied:  18
Implied bound cuts applied:  153
Flow cuts applied:  129
Mixed integer rounding cuts applied:  24
Gomory fractional cuts applied:  91

Root node processing (before b&c):
  Real time             =    6.76 sec. (4392.81 ticks)
Parallel b&c, 32 threads:
  Real time             =   57.66 sec. (27955.93 ticks)
  Sync time (average)   =    1.82 sec.
  Wait time (average)   =    0.09 sec.
                          ------------
Total (root+branch&cut) =   64.42 sec. (32348.74 ticks)

Solution pool: 18 solutions saved.

MIP - Integer optimal solution:  Objective =  2.3164346654e+00
Solution time =   64.42 sec.  Iterations = 190394  Nodes = 20617
Deterministic time = 32348.90 ticks  (502.15 ticks/sec)

CPLEX> Incumbent solution written to file 'C:\Users\llavin\Desktop\test919\logs\tmpg1qypt86.cplex.sol'.
CPLEX> Exporting results... 
